NAME : sample10
COMMENT : Sample 10-city TSP
TYPE : TSP
DIMENSION : 10
EDGE_WEIGHT_TYPE : MAN_2D
NODE_COORD_SECTION
1  2  3
2  5  1
3  1  7
4  4  6
5  3  2
6  6  5
7  8  3
8  7  8
9  2  6
10 0  5
EOF
